testes/teste5.lp
\* Problem: projeto *\

Minimize multi-objectives
 distancia: RelTol=0.5
 + 10 y(1,1) + 40 y(2,1) + 70 y(3,1) + 120 y(4,1) + 70 y(5,1) + 120 y(1,2)
 + 80 y(2,2) + 40 y(3,2) + 101 y(4,2) + 30 y(5,2) + 50 y(1,3) + 20 y(2,3)
 + 10 y(3,3) + 160 y(4,3) + 120 y(5,3) + 60 y(1,4) + 120 y(2,4) + 130 y(3,4)
 + 101 y(4,4) + 70 y(5,4)
 lixeiras: Priority=-1
 + x(1,1) + x(1,2) + x(1,3) + x(1,4) + x(1,5) + x(1,6) + x(2,1) + x(2,2)
 + x(2,3) + x(2,4) + x(2,5) + x(2,6) + x(3,1) + x(3,2) + x(3,3) + x(3,4)
 + x(3,5) + x(3,6) + x(4,1) + x(4,2) + x(4,3) + x(4,4) + x(4,5) + x(4,6)
 + x(5,1) + x(5,2) + x(5,3) + x(5,4) + x(5,5) + x(5,6)

Subject To
 lim_volume(1): + 3 x(1,1) + 3 x(1,2) + 3 x(1,3) + 3 x(1,4) + 3 x(1,5)
 + 3 x(1,6) >= -0
 lim_volume(2): + 3 x(2,1) + 3 x(2,2) + 3 x(2,3) + 3 x(2,4) + 3 x(2,5)
 + 3 x(2,6) >= 4
 lim_volume(3): + 3 x(3,1) + 3 x(3,2) + 3 x(3,3) + 3 x(3,4) + 3 x(3,5)
 + 3 x(3,6) >= -0
 lim_volume(4): + 3 x(4,1) + 3 x(4,2) + 3 x(4,3) + 3 x(4,4) + 3 x(4,5)
 + 3 x(4,6) >= 2
 lim_volume(5): + 3 x(5,1) + 3 x(5,2) + 3 x(5,3) + 3 x(5,4) + 3 x(5,5)
 + 3 x(5,6) >= -0
 lim_espaco(1): + 2 x(1,1) + 2 x(1,2) + 2 x(1,3) + 2 x(1,4) + 2 x(1,5)
 + 2 x(1,6) <= 8
 lim_espaco(2): + 2 x(2,1) + 2 x(2,2) + 2 x(2,3) + 2 x(2,4) + 2 x(2,5)
 + 2 x(2,6) <= 6
 lim_espaco(3): + 2 x(3,1) + 2 x(3,2) + 2 x(3,3) + 2 x(3,4) + 2 x(3,5)
 + 2 x(3,6) <= 15
 lim_espaco(4): + 2 x(4,1) + 2 x(4,2) + 2 x(4,3) + 2 x(4,4) + 2 x(4,5)
 + 2 x(4,6) <= 8
 lim_espaco(5): + 2 x(5,1) + 2 x(5,2) + 2 x(5,3) + 2 x(5,4) + 2 x(5,5)
 + 2 x(5,6) <= 15
 lim_localizacao(1): + y(1,1) + y(2,1) + y(3,1) + y(4,1) + y(5,1) = 1
 lim_localizacao(2): + y(1,2) + y(2,2) + y(3,2) + y(4,2) + y(5,2) = 1
 lim_localizacao(3): + y(1,3) + y(2,3) + y(3,3) + y(4,3) + y(5,3) = 1
 lim_localizacao(4): + y(1,4) + y(2,4) + y(3,4) + y(4,4) + y(5,4) = 1
 lim_lixeiras(1,1): + x(1,1) + x(1,2) + x(1,3) + x(1,4) + x(1,5)
 + x(1,6) - y(1,1) >= -0
 lim_lixeiras(1,2): + x(1,1) + x(1,2) + x(1,3) + x(1,4) + x(1,5)
 + x(1,6) - y(1,2) >= -0
 lim_lixeiras(1,3): + x(1,1) + x(1,2) + x(1,3) + x(1,4) + x(1,5)
 + x(1,6) - y(1,3) >= -0
 lim_lixeiras(1,4): + x(1,1) + x(1,2) + x(1,3) + x(1,4) + x(1,5)
 + x(1,6) - y(1,4) >= -0
 lim_lixeiras(2,1): + x(2,1) + x(2,2) + x(2,3) + x(2,4) + x(2,5)
 + x(2,6) - y(2,1) >= -0
 lim_lixeiras(2,2): + x(2,1) + x(2,2) + x(2,3) + x(2,4) + x(2,5)
 + x(2,6) - y(2,2) >= -0
 lim_lixeiras(2,3): + x(2,1) + x(2,2) + x(2,3) + x(2,4) + x(2,5)
 + x(2,6) - y(2,3) >= -0
 lim_lixeiras(2,4): + x(2,1) + x(2,2) + x(2,3) + x(2,4) + x(2,5)
 + x(2,6) - y(2,4) >= -0
 lim_lixeiras(3,1): + x(3,1) + x(3,2) + x(3,3) + x(3,4) + x(3,5)
 + x(3,6) - y(3,1) >= -0
 lim_lixeiras(3,2): + x(3,1) + x(3,2) + x(3,3) + x(3,4) + x(3,5)
 + x(3,6) - y(3,2) >= -0
 lim_lixeiras(3,3): + x(3,1) + x(3,2) + x(3,3) + x(3,4) + x(3,5)
 + x(3,6) - y(3,3) >= -0
 lim_lixeiras(3,4): + x(3,1) + x(3,2) + x(3,3) + x(3,4) + x(3,5)
 + x(3,6) - y(3,4) >= -0
 lim_lixeiras(4,1): + x(4,1) + x(4,2) + x(4,3) + x(4,4) + x(4,5)
 + x(4,6) - y(4,1) >= -0
 lim_lixeiras(4,2): + x(4,1) + x(4,2) + x(4,3) + x(4,4) + x(4,5)
 + x(4,6) - y(4,2) >= -0
 lim_lixeiras(4,3): + x(4,1) + x(4,2) + x(4,3) + x(4,4) + x(4,5)
 + x(4,6) - y(4,3) >= -0
 lim_lixeiras(4,4): + x(4,1) + x(4,2) + x(4,3) + x(4,4) + x(4,5)
 + x(4,6) - y(4,4) >= -0
 lim_lixeiras(5,1): + x(5,1) + x(5,2) + x(5,3) + x(5,4) + x(5,5)
 + x(5,6) - y(5,1) >= -0
 lim_lixeiras(5,2): + x(5,1) + x(5,2) + x(5,3) + x(5,4) + x(5,5)
 + x(5,6) - y(5,2) >= -0
 lim_lixeiras(5,3): + x(5,1) + x(5,2) + x(5,3) + x(5,4) + x(5,5)
 + x(5,6) - y(5,3) >= -0
 lim_lixeiras(5,4): + x(5,1) + x(5,2) + x(5,3) + x(5,4) + x(5,5)
 + x(5,6) - y(5,4) >= -0
 lim_distancia(1,1): + 10 y(1,1) <= 100
 lim_distancia(1,2): + 120 y(1,2) <= 100
 lim_distancia(1,3): + 50 y(1,3) <= 100
 lim_distancia(1,4): + 60 y(1,4) <= 100
 lim_distancia(2,1): + 40 y(2,1) <= 100
 lim_distancia(2,2): + 80 y(2,2) <= 100
 lim_distancia(2,3): + 20 y(2,3) <= 100
 lim_distancia(2,4): + 120 y(2,4) <= 100
 lim_distancia(3,1): + 70 y(3,1) <= 100
 lim_distancia(3,2): + 40 y(3,2) <= 100
 lim_distancia(3,3): + 10 y(3,3) <= 100
 lim_distancia(3,4): + 130 y(3,4) <= 100
 lim_distancia(4,1): + 120 y(4,1) <= 100
 lim_distancia(4,2): + 101 y(4,2) <= 100
 lim_distancia(4,3): + 160 y(4,3) <= 100
 lim_distancia(4,4): + 101 y(4,4) <= 100
 lim_distancia(5,1): + 70 y(5,1) <= 100
 lim_distancia(5,2): + 30 y(5,2) <= 100
 lim_distancia(5,3): + 120 y(5,3) <= 100
 lim_distancia(5,4): + 70 y(5,4) <= 100
 lim_instalacao(1): + x(1,1) + x(2,1) + x(3,1) + x(4,1) + x(5,1) - ~r_55
 = 0
 lim_instalacao(2): + x(1,2) + x(2,2) + x(3,2) + x(4,2) + x(5,2) - ~r_56
 = 0
 lim_instalacao(3): + x(1,3) + x(2,3) + x(3,3) + x(4,3) + x(5,3) - ~r_57
 = 0
 lim_instalacao(4): + x(1,4) + x(2,4) + x(3,4) + x(4,4) + x(5,4) - ~r_58
 = 0
 lim_instalacao(5): + x(1,5) + x(2,5) + x(3,5) + x(4,5) + x(5,5) - ~r_59
 = 0
 lim_instalacao(6): + x(1,6) + x(2,6) + x(3,6) + x(4,6) + x(5,6) - ~r_60
 = 0

Bounds
 0 <= ~r_55 <= 1
 0 <= ~r_56 <= 1
 0 <= ~r_57 <= 1
 0 <= ~r_58 <= 1
 0 <= ~r_59 <= 1
 0 <= ~r_60 <= 1
 0 <= x(1,1) <= 1
 0 <= x(1,2) <= 1
 0 <= x(1,3) <= 1
 0 <= x(1,4) <= 1
 0 <= x(1,5) <= 1
 0 <= x(1,6) <= 1
 0 <= x(2,1) <= 1
 0 <= x(2,2) <= 1
 0 <= x(2,3) <= 1
 0 <= x(2,4) <= 1
 0 <= x(2,5) <= 1
 0 <= x(2,6) <= 1
 0 <= x(3,1) <= 1
 0 <= x(3,2) <= 1
 0 <= x(3,3) <= 1
 0 <= x(3,4) <= 1
 0 <= x(3,5) <= 1
 0 <= x(3,6) <= 1
 0 <= x(4,1) <= 1
 0 <= x(4,2) <= 1
 0 <= x(4,3) <= 1
 0 <= x(4,4) <= 1
 0 <= x(4,5) <= 1
 0 <= x(4,6) <= 1
 0 <= x(5,1) <= 1
 0 <= x(5,2) <= 1
 0 <= x(5,3) <= 1
 0 <= x(5,4) <= 1
 0 <= x(5,5) <= 1
 0 <= x(5,6) <= 1
 0 <= y(1,1) <= 1
 0 <= y(2,1) <= 1
 0 <= y(3,1) <= 1
 0 <= y(4,1) <= 1
 0 <= y(5,1) <= 1
 0 <= y(1,2) <= 1
 0 <= y(2,2) <= 1
 0 <= y(3,2) <= 1
 0 <= y(4,2) <= 1
 0 <= y(5,2) <= 1
 0 <= y(1,3) <= 1
 0 <= y(2,3) <= 1
 0 <= y(3,3) <= 1
 0 <= y(4,3) <= 1
 0 <= y(5,3) <= 1
 0 <= y(1,4) <= 1
 0 <= y(2,4) <= 1
 0 <= y(3,4) <= 1
 0 <= y(4,4) <= 1
 0 <= y(5,4) <= 1

Generals
 x(1,1)
 x(1,2)
 x(1,3)
 x(1,4)
 x(1,5)
 x(1,6)
 x(2,1)
 x(2,2)
 x(2,3)
 x(2,4)
 x(2,5)
 x(2,6)
 x(3,1)
 x(3,2)
 x(3,3)
 x(3,4)
 x(3,5)
 x(3,6)
 x(4,1)
 x(4,2)
 x(4,3)
 x(4,4)
 x(4,5)
 x(4,6)
 x(5,1)
 x(5,2)
 x(5,3)
 x(5,4)
 x(5,5)
 x(5,6)
 y(1,1)
 y(2,1)
 y(3,1)
 y(4,1)
 y(5,1)
 y(1,2)
 y(2,2)
 y(3,2)
 y(4,2)
 y(5,2)
 y(1,3)
 y(2,3)
 y(3,3)
 y(4,3)
 y(5,3)
 y(1,4)
 y(2,4)
 y(3,4)
 y(4,4)
 y(5,4)

End
